benchmark/results/graph__10-1000-0.10-02_1/graph__10-1000-0.10-02_1_Quinton_Benders_aux.lp
\ This file has been generated by DOcplex
\ ENCODING=ISO-8859-1
\Problem name: Quinton Benders_auxiliary_sub

Minimize
 obj: 0.000584567420 pi_nr_a0 + 0.000629722922 pi_nr_a1
      + 0.000689338235 pi_nr_a2 + 0.000661375661 pi_nr_a3
      + 0.001777251185 pi_nr_a4 + 0.001070384294 pi_nr_a5
      + 0.001232290123 pi_nr_a6 + 0.000878252641 pi_nr_a7
      + 0.000920604998 pi_nr_a8 + 0.000633981403 pi_nr_a9 + pi_p_a0_a1
      + pi_p_a3_a6 + pi_p_a2_a8 + pi_p_a9_a5 + pi_p_a5_a8 + pi_p_a9_a4
      + 642.250000000000 pi_d_a0_a2_proc_1 + 641.500000000000 pi_d_a2_a0_proc_1
      + 642.250000000000 pi_d_a0_a4_proc_1 + 641.500000000000 pi_d_a4_a0_proc_1
      + 1925.250000000000 pi_d_a0_a5_proc_1 + 641.500000000000 pi_d_a5_a0_proc_1
      + 1925.750000000000 pi_d_a0_a6_proc_1 + 641 pi_d_a6_a0_proc_1
      + 1924.750000000000 pi_d_a0_a7_proc_1 + 642 pi_d_a7_a0_proc_1
      + 1925.250000000000 pi_d_a0_a8_proc_1 + 641.500000000000 pi_d_a8_a0_proc_1
      + 641.750000000000 pi_d_a0_a9_proc_1 + 642 pi_d_a9_a0_proc_1
      + 2566 pi_d_a1_a2_proc_0 + 642.250000000000 pi_d_a2_a1_proc_0
      + 641.750000000000 pi_d_a1_a3_proc_0 + 642 pi_d_a3_a1_proc_0
      + 2566.250000000000 pi_d_a1_a4_proc_0 + 642 pi_d_a4_a1_proc_0
      + 1283.250000000000 pi_d_a1_a5_proc_0 + 642 pi_d_a5_a1_proc_0
      + 1283.750000000000 pi_d_a1_a6_proc_0 + 641.500000000000 pi_d_a6_a1_proc_0
      + 1282.750000000000 pi_d_a1_a7_proc_0 + 642.500000000000 pi_d_a7_a1_proc_0
      + 1283.750000000000 pi_d_a1_a8_proc_0 + 641.500000000000 pi_d_a8_a1_proc_0
      + 2566.750000000000 pi_d_a2_a3_proc_0 + 641.500000000000 pi_d_a3_a2_proc_0
      + 642.250000000000 pi_d_a2_a4_proc_1 + 2566.750000000000 pi_d_a2_a4_proc_0
      + 641.500000000000 pi_d_a4_a2_proc_1 + 2566 pi_d_a4_a2_proc_0
      + 1925.250000000000 pi_d_a2_a5_proc_1
      + 2566.750000000000 pi_d_a2_a5_proc_0 + 641.500000000000 pi_d_a5_a2_proc_1
      + 1283 pi_d_a5_a2_proc_0 + 1925.250000000000 pi_d_a2_a6_proc_1
      + 2566.750000000000 pi_d_a2_a6_proc_0 + 641.500000000000 pi_d_a6_a2_proc_1
      + 1283 pi_d_a6_a2_proc_0 + 1924.750000000000 pi_d_a2_a7_proc_1
      + 2566.250000000000 pi_d_a2_a7_proc_0 + 642 pi_d_a7_a2_proc_1
      + 1283.500000000000 pi_d_a7_a2_proc_0
      + 1925.250000000000 pi_d_a2_a8_proc_1
      + 2566.750000000000 pi_d_a2_a8_proc_0 + 641.500000000000 pi_d_a8_a2_proc_1
      + 1283 pi_d_a8_a2_proc_0 + 641.750000000000 pi_d_a2_a9_proc_1
      + 642 pi_d_a9_a2_proc_1 + 2566.250000000000 pi_d_a3_a4_proc_0
      + 642 pi_d_a4_a3_proc_0 + 1283.750000000000 pi_d_a3_a5_proc_0
      + 641.500000000000 pi_d_a5_a3_proc_0 + 1283.750000000000 pi_d_a3_a6_proc_0
      + 641.500000000000 pi_d_a6_a3_proc_0 + 1283.250000000000 pi_d_a3_a7_proc_0
      + 642 pi_d_a7_a3_proc_0 + 1283.750000000000 pi_d_a3_a8_proc_0
      + 641.500000000000 pi_d_a8_a3_proc_0 + 1924.500000000000 pi_d_a4_a5_proc_1
      + 2566 pi_d_a4_a5_proc_0 + 642.250000000000 pi_d_a5_a4_proc_1
      + 1283.750000000000 pi_d_a5_a4_proc_0
      + 1925.250000000000 pi_d_a4_a6_proc_1
      + 2566.750000000000 pi_d_a4_a6_proc_0 + 641.500000000000 pi_d_a6_a4_proc_1
      + 1283 pi_d_a6_a4_proc_0 + 1924.500000000000 pi_d_a4_a7_proc_1
      + 2566 pi_d_a4_a7_proc_0 + 642.250000000000 pi_d_a7_a4_proc_1
      + 1283.750000000000 pi_d_a7_a4_proc_0 + 1925 pi_d_a4_a8_proc_1
      + 2566.500000000000 pi_d_a4_a8_proc_0 + 641.750000000000 pi_d_a8_a4_proc_1
      + 1283.250000000000 pi_d_a8_a4_proc_0 + 641.500000000000 pi_d_a4_a9_proc_1
      + 642.250000000000 pi_d_a9_a4_proc_1 + 1925.250000000000 pi_d_a5_a6_proc_1
      + 1283.750000000000 pi_d_a5_a6_proc_0
      + 1924.500000000000 pi_d_a6_a5_proc_1 + 1283 pi_d_a6_a5_proc_0
      + 1924.750000000000 pi_d_a5_a7_proc_1
      + 1283.250000000000 pi_d_a5_a7_proc_0 + 1925 pi_d_a7_a5_proc_1
      + 1283.500000000000 pi_d_a7_a5_proc_0
      + 1925.250000000000 pi_d_a5_a8_proc_1
      + 1283.750000000000 pi_d_a5_a8_proc_0
      + 1924.500000000000 pi_d_a8_a5_proc_1 + 1283 pi_d_a8_a5_proc_0
      + 1924.750000000000 pi_d_a5_a9_proc_1 + 642 pi_d_a9_a5_proc_1
      + 1924 pi_d_a6_a7_proc_1 + 1282.500000000000 pi_d_a6_a7_proc_0
      + 1925.750000000000 pi_d_a7_a6_proc_1
      + 1284.250000000000 pi_d_a7_a6_proc_0
      + 1924.500000000000 pi_d_a6_a8_proc_1 + 1283 pi_d_a6_a8_proc_0
      + 1925.250000000000 pi_d_a8_a6_proc_1
      + 1283.750000000000 pi_d_a8_a6_proc_0 + 1924 pi_d_a6_a9_proc_1
      + 642.750000000000 pi_d_a9_a6_proc_1 + 1925.500000000000 pi_d_a7_a8_proc_1
      + 1284 pi_d_a7_a8_proc_0 + 1924.250000000000 pi_d_a8_a7_proc_1
      + 1282.750000000000 pi_d_a8_a7_proc_0
      + 1924.500000000000 pi_d_a7_a9_proc_1 + 642.250000000000 pi_d_a9_a7_proc_1
      + 641.250000000000 pi_d_a8_a9_proc_1 + 1925.500000000000 pi_d_a9_a8_proc_1
      + 0.750000000000 pi_y2_a0_proc_1 + 0.750000000000 pi_y2_a1_proc_0
      + 0.750000000000 pi_y2_a2_proc_1 + 0.750000000000 pi_y2_a3_proc_0
      + 0.750000000000 pi_y2_a4_proc_1 + 0.500000000000 pi_y2_a5_proc_0
      + 0.250000000000 pi_y2_a5_proc_1 + 0.500000000000 pi_y2_a6_proc_0
      + 0.250000000000 pi_y2_a6_proc_1 + 0.500000000000 pi_y2_a7_proc_0
      + 0.250000000000 pi_y2_a7_proc_1 + 0.500000000000 pi_y2_a8_proc_0
      + 0.250000000000 pi_y2_a8_proc_1 + 0.750000000000 pi_y2_a9_proc_1
Subject To
 c1: 0.000779423227 pi_nr_a0 + 0.000839630563 pi_nr_a1 + 0.000919117647 pi_nr_a2
     + 0.000881834215 pi_nr_a3 + 0.002369668246 pi_nr_a4
     + 0.001644736842 pi_nr_a5 + 0.001751313485 pi_nr_a6
     + 0.001210653753 pi_nr_a7 + 0.000866551127 pi_nr_a8
     + 0.000845308538 pi_nr_a9 + pi_p_a0_a1 + pi_p_a3_a6 + pi_p_a2_a8
     + pi_p_a9_a5 + pi_p_a5_a8 + pi_p_a9_a4 + pi_d_a0_a2_proc_1
     + pi_d_a0_a4_proc_1 + 2567 pi_d_a0_a5_proc_1 + 2568 pi_d_a0_a6_proc_1
     - pi_d_a6_a0_proc_1 + 2566 pi_d_a0_a7_proc_1 + pi_d_a7_a0_proc_1
     + 2567 pi_d_a0_a8_proc_1 + pi_d_a9_a0_proc_1 + 2566 pi_d_a1_a2_proc_0
     + pi_d_a2_a1_proc_0 + pi_d_a3_a1_proc_0 + 2566 pi_d_a1_a4_proc_0
     + pi_d_a4_a1_proc_0 + pi_d_a5_a1_proc_0 + pi_d_a1_a6_proc_0
     - pi_d_a1_a7_proc_0 + 2 pi_d_a7_a1_proc_0 + pi_d_a1_a8_proc_0
     + 2567 pi_d_a2_a3_proc_0 + pi_d_a2_a4_proc_1 + 2567 pi_d_a2_a4_proc_0
     + 2566 pi_d_a4_a2_proc_0 + 2567 pi_d_a2_a5_proc_1 + 2567 pi_d_a2_a5_proc_0
     + 2567 pi_d_a2_a6_proc_1 + 2567 pi_d_a2_a6_proc_0 + 2566 pi_d_a2_a7_proc_1
     + 2566 pi_d_a2_a7_proc_0 + pi_d_a7_a2_proc_1 + pi_d_a7_a2_proc_0
     + 2567 pi_d_a2_a8_proc_1 + 2567 pi_d_a2_a8_proc_0 + pi_d_a9_a2_proc_1
     + 2566 pi_d_a3_a4_proc_0 + pi_d_a4_a3_proc_0 + pi_d_a3_a5_proc_0
     + pi_d_a3_a6_proc_0 + pi_d_a7_a3_proc_0 + pi_d_a3_a8_proc_0
     + 2566 pi_d_a4_a5_proc_1 + 2566 pi_d_a4_a5_proc_0 + pi_d_a5_a4_proc_1
     + pi_d_a5_a4_proc_0 + 2567 pi_d_a4_a6_proc_1 + 2567 pi_d_a4_a6_proc_0
     + 2566 pi_d_a4_a7_proc_1 + 2566 pi_d_a4_a7_proc_0 + pi_d_a7_a4_proc_1
     + pi_d_a7_a4_proc_0 + 2567 pi_d_a4_a8_proc_1 + 2567 pi_d_a4_a8_proc_0
     + pi_d_a9_a4_proc_1 + 2567 pi_d_a5_a6_proc_1 + pi_d_a5_a6_proc_0
     + 2566 pi_d_a6_a5_proc_1 + 2566 pi_d_a5_a7_proc_1 + 2567 pi_d_a7_a5_proc_1
     + pi_d_a7_a5_proc_0 + 2567 pi_d_a5_a8_proc_1 + pi_d_a5_a8_proc_0
     + 2566 pi_d_a8_a5_proc_1 + 2566 pi_d_a5_a9_proc_1 + pi_d_a9_a5_proc_1
     + 2565 pi_d_a6_a7_proc_1 - pi_d_a6_a7_proc_0 + 2568 pi_d_a7_a6_proc_1
     + 2 pi_d_a7_a6_proc_0 + 2566 pi_d_a6_a8_proc_1 + 2567 pi_d_a8_a6_proc_1
     + pi_d_a8_a6_proc_0 + 2565 pi_d_a6_a9_proc_1 + 2 pi_d_a9_a6_proc_1
     + 2568 pi_d_a7_a8_proc_1 + 2 pi_d_a7_a8_proc_0 + 2565 pi_d_a8_a7_proc_1
     - pi_d_a8_a7_proc_0 + 2566 pi_d_a7_a9_proc_1 + pi_d_a9_a7_proc_1
     - pi_d_a8_a9_proc_1 + 2568 pi_d_a9_a8_proc_1 + pi_y2_a0_proc_1
     + pi_y2_a1_proc_0 + pi_y2_a2_proc_1 + pi_y2_a3_proc_0 + pi_y2_a4_proc_1
     + pi_y2_a5_proc_0 + pi_y2_a6_proc_0 + pi_y2_a7_proc_0 + pi_y2_a8_proc_0
     + pi_y2_a9_proc_1 = 0.000136742787
 c2: pi_nr_a0 + pi_nr_a1 + pi_nr_a2 + pi_nr_a3 + pi_nr_a4 + pi_nr_a5 + pi_nr_a6
     + pi_nr_a7 + pi_nr_a8 + pi_nr_a9 - pi_y1_a0 - pi_y1_a1 - pi_y1_a2
     - pi_y1_a3 - pi_y1_a4 - pi_y1_a5 - pi_y1_a6 - pi_y1_a7 - pi_y1_a8
     - pi_y1_a9 >= 1
 c3: pi_p_a0_a1 - pi_p_a2_a0 - pi_p_a4_a0 - pi_p_a1_a0 + pi_d_a0_a2_proc_1
     - pi_d_a2_a0_proc_1 + pi_d_a0_a4_proc_1 - pi_d_a4_a0_proc_1
     + pi_d_a0_a5_proc_1 - pi_d_a5_a0_proc_1 + pi_d_a0_a6_proc_1
     - pi_d_a6_a0_proc_1 + pi_d_a0_a7_proc_1 - pi_d_a7_a0_proc_1
     + pi_d_a0_a8_proc_1 - pi_d_a8_a0_proc_1 + pi_d_a0_a9_proc_1
     - pi_d_a9_a0_proc_1 >= 0
 c4: 1283 pi_p_a0_a1 + 1283 pi_d_a0_a2_proc_1 + 1283 pi_d_a0_a4_proc_1
     + 1283 pi_d_a0_a5_proc_1 + 1283 pi_d_a0_a6_proc_1 + 1283 pi_d_a0_a7_proc_1
     + 1283 pi_d_a0_a8_proc_1 + 1283 pi_d_a0_a9_proc_1 + pi_y1_a0
     + pi_y2_a0_proc_1 >= 0
 c5: - pi_p_a0_a1 + pi_p_a1_a0 + pi_d_a1_a2_proc_0 - pi_d_a2_a1_proc_0
     + pi_d_a1_a3_proc_0 - pi_d_a3_a1_proc_0 + pi_d_a1_a4_proc_0
     - pi_d_a4_a1_proc_0 + pi_d_a1_a5_proc_0 - pi_d_a5_a1_proc_0
     + pi_d_a1_a6_proc_0 - pi_d_a6_a1_proc_0 + pi_d_a1_a7_proc_0
     - pi_d_a7_a1_proc_0 + pi_d_a1_a8_proc_0 - pi_d_a8_a1_proc_0 >= 0
 c6: 1191 pi_p_a1_a0 + 1191 pi_d_a1_a2_proc_0 + 1191 pi_d_a1_a3_proc_0
     + 1191 pi_d_a1_a4_proc_0 + 1191 pi_d_a1_a5_proc_0 + 1191 pi_d_a1_a6_proc_0
     + 1191 pi_d_a1_a7_proc_0 + 1191 pi_d_a1_a8_proc_0 + pi_y1_a1
     + pi_y2_a1_proc_0 >= 0
 c7: pi_p_a2_a0 - pi_p_a3_a2 + pi_p_a2_a8 - pi_d_a0_a2_proc_1
     + pi_d_a2_a0_proc_1 - pi_d_a1_a2_proc_0 + pi_d_a2_a1_proc_0
     + pi_d_a2_a3_proc_0 - pi_d_a3_a2_proc_0 + pi_d_a2_a4_proc_1
     + pi_d_a2_a4_proc_0 - pi_d_a4_a2_proc_1 - pi_d_a4_a2_proc_0
     + pi_d_a2_a5_proc_1 + pi_d_a2_a5_proc_0 - pi_d_a5_a2_proc_1
     - pi_d_a5_a2_proc_0 + pi_d_a2_a6_proc_1 + pi_d_a2_a6_proc_0
     - pi_d_a6_a2_proc_1 - pi_d_a6_a2_proc_0 + pi_d_a2_a7_proc_1
     + pi_d_a2_a7_proc_0 - pi_d_a7_a2_proc_1 - pi_d_a7_a2_proc_0
     + pi_d_a2_a8_proc_1 + pi_d_a2_a8_proc_0 - pi_d_a8_a2_proc_1
     - pi_d_a8_a2_proc_0 + pi_d_a2_a9_proc_1 - pi_d_a9_a2_proc_1 >= 0
 c8: 609 pi_p_a2_a0 + 609 pi_p_a2_a8 + 609 pi_d_a2_a1_proc_0
     + 609 pi_d_a2_a3_proc_0 + 609 pi_d_a2_a4_proc_0 + 609 pi_d_a2_a5_proc_0
     + 609 pi_d_a2_a6_proc_0 + 609 pi_d_a2_a7_proc_0 + 609 pi_d_a2_a8_proc_0
     + pi_y1_a2 + pi_y2_a2_proc_0 >= 0
 c9: 1088 pi_p_a2_a0 + 1088 pi_p_a2_a8 + 1088 pi_d_a2_a0_proc_1
     + 1088 pi_d_a2_a4_proc_1 + 1088 pi_d_a2_a5_proc_1 + 1088 pi_d_a2_a6_proc_1
     + 1088 pi_d_a2_a7_proc_1 + 1088 pi_d_a2_a8_proc_1 + 1088 pi_d_a2_a9_proc_1
     + pi_y1_a2 + pi_y2_a2_proc_1 >= 0
 c10: pi_p_a3_a2 - pi_p_a5_a3 + pi_p_a3_a6 - pi_d_a1_a3_proc_0
      + pi_d_a3_a1_proc_0 - pi_d_a2_a3_proc_0 + pi_d_a3_a2_proc_0
      + pi_d_a3_a4_proc_0 - pi_d_a4_a3_proc_0 + pi_d_a3_a5_proc_0
      - pi_d_a5_a3_proc_0 + pi_d_a3_a6_proc_0 - pi_d_a6_a3_proc_0
      + pi_d_a3_a7_proc_0 - pi_d_a7_a3_proc_0 + pi_d_a3_a8_proc_0
      - pi_d_a8_a3_proc_0 >= 0
 c11: 1134 pi_p_a3_a2 + 1134 pi_p_a3_a6 + 1134 pi_d_a3_a1_proc_0
      + 1134 pi_d_a3_a2_proc_0 + 1134 pi_d_a3_a4_proc_0 + 1134 pi_d_a3_a5_proc_0
      + 1134 pi_d_a3_a6_proc_0 + 1134 pi_d_a3_a7_proc_0 + 1134 pi_d_a3_a8_proc_0
      + pi_y1_a3 + pi_y2_a3_proc_0 >= 0
 c12: pi_p_a4_a0 + pi_p_a4_a7 - pi_p_a6_a4 - pi_p_a9_a4 - pi_d_a0_a4_proc_1
      + pi_d_a4_a0_proc_1 - pi_d_a1_a4_proc_0 + pi_d_a4_a1_proc_0
      - pi_d_a2_a4_proc_1 - pi_d_a2_a4_proc_0 + pi_d_a4_a2_proc_1
      + pi_d_a4_a2_proc_0 - pi_d_a3_a4_proc_0 + pi_d_a4_a3_proc_0
      + pi_d_a4_a5_proc_1 + pi_d_a4_a5_proc_0 - pi_d_a5_a4_proc_1
      - pi_d_a5_a4_proc_0 + pi_d_a4_a6_proc_1 + pi_d_a4_a6_proc_0
      - pi_d_a6_a4_proc_1 - pi_d_a6_a4_proc_0 + pi_d_a4_a7_proc_1
      + pi_d_a4_a7_proc_0 - pi_d_a7_a4_proc_1 - pi_d_a7_a4_proc_0
      + pi_d_a4_a8_proc_1 + pi_d_a4_a8_proc_0 - pi_d_a8_a4_proc_1
      - pi_d_a8_a4_proc_0 + pi_d_a4_a9_proc_1 - pi_d_a9_a4_proc_1 >= 0
 c13: 776 pi_p_a4_a0 + 776 pi_p_a4_a7 + 776 pi_d_a4_a1_proc_0
      + 776 pi_d_a4_a2_proc_0 + 776 pi_d_a4_a3_proc_0 + 776 pi_d_a4_a5_proc_0
      + 776 pi_d_a4_a6_proc_0 + 776 pi_d_a4_a7_proc_0 + 776 pi_d_a4_a8_proc_0
      + pi_y1_a4 + pi_y2_a4_proc_0 >= 0
 c14: 422 pi_p_a4_a0 + 422 pi_p_a4_a7 + 422 pi_d_a4_a0_proc_1
      + 422 pi_d_a4_a2_proc_1 + 422 pi_d_a4_a5_proc_1 + 422 pi_d_a4_a6_proc_1
      + 422 pi_d_a4_a7_proc_1 + 422 pi_d_a4_a8_proc_1 + 422 pi_d_a4_a9_proc_1
      + pi_y1_a4 + pi_y2_a4_proc_1 >= 0
 c15: pi_p_a5_a3 - pi_p_a9_a5 - pi_p_a8_a5 + pi_p_a5_a8 - pi_d_a0_a5_proc_1
      + pi_d_a5_a0_proc_1 - pi_d_a1_a5_proc_0 + pi_d_a5_a1_proc_0
      - pi_d_a2_a5_proc_1 - pi_d_a2_a5_proc_0 + pi_d_a5_a2_proc_1
      + pi_d_a5_a2_proc_0 - pi_d_a3_a5_proc_0 + pi_d_a5_a3_proc_0
      - pi_d_a4_a5_proc_1 - pi_d_a4_a5_proc_0 + pi_d_a5_a4_proc_1
      + pi_d_a5_a4_proc_0 + pi_d_a5_a6_proc_1 + pi_d_a5_a6_proc_0
      - pi_d_a6_a5_proc_1 - pi_d_a6_a5_proc_0 + pi_d_a5_a7_proc_1
      + pi_d_a5_a7_proc_0 - pi_d_a7_a5_proc_1 - pi_d_a7_a5_proc_0
      + pi_d_a5_a8_proc_1 + pi_d_a5_a8_proc_0 - pi_d_a8_a5_proc_1
      - pi_d_a8_a5_proc_0 + pi_d_a5_a9_proc_1 - pi_d_a9_a5_proc_1 >= 0
 c16: 608 pi_p_a5_a3 + 608 pi_p_a5_a8 + 608 pi_d_a5_a1_proc_0
      + 608 pi_d_a5_a2_proc_0 + 608 pi_d_a5_a3_proc_0 + 608 pi_d_a5_a4_proc_0
      + 608 pi_d_a5_a6_proc_0 + 608 pi_d_a5_a7_proc_0 + 608 pi_d_a5_a8_proc_0
      + pi_y1_a5 + pi_y2_a5_proc_0 >= 0
 c17: 1008 pi_p_a5_a3 + 1008 pi_p_a5_a8 + 1008 pi_d_a5_a0_proc_1
      + 1008 pi_d_a5_a2_proc_1 + 1008 pi_d_a5_a4_proc_1 + 1008 pi_d_a5_a6_proc_1
      + 1008 pi_d_a5_a7_proc_1 + 1008 pi_d_a5_a8_proc_1 + 1008 pi_d_a5_a9_proc_1
      + pi_y1_a5 + pi_y2_a5_proc_1 >= 0
 c18: - pi_p_a3_a6 + pi_p_a6_a4 - pi_d_a0_a6_proc_1 + pi_d_a6_a0_proc_1
      - pi_d_a1_a6_proc_0 + pi_d_a6_a1_proc_0 - pi_d_a2_a6_proc_1
      - pi_d_a2_a6_proc_0 + pi_d_a6_a2_proc_1 + pi_d_a6_a2_proc_0
      - pi_d_a3_a6_proc_0 + pi_d_a6_a3_proc_0 - pi_d_a4_a6_proc_1
      - pi_d_a4_a6_proc_0 + pi_d_a6_a4_proc_1 + pi_d_a6_a4_proc_0
      - pi_d_a5_a6_proc_1 - pi_d_a5_a6_proc_0 + pi_d_a6_a5_proc_1
      + pi_d_a6_a5_proc_0 + pi_d_a6_a7_proc_1 + pi_d_a6_a7_proc_0
      - pi_d_a7_a6_proc_1 - pi_d_a7_a6_proc_0 + pi_d_a6_a8_proc_1
      + pi_d_a6_a8_proc_0 - pi_d_a8_a6_proc_1 - pi_d_a8_a6_proc_0
      + pi_d_a6_a9_proc_1 - pi_d_a9_a6_proc_1 >= 0
 c19: 571 pi_p_a6_a4 + 571 pi_d_a6_a1_proc_0 + 571 pi_d_a6_a2_proc_0
      + 571 pi_d_a6_a3_proc_0 + 571 pi_d_a6_a4_proc_0 + 571 pi_d_a6_a5_proc_0
      + 571 pi_d_a6_a7_proc_0 + 571 pi_d_a6_a8_proc_0 + pi_y1_a6
      + pi_y2_a6_proc_0 >= 0
 c20: 701 pi_p_a6_a4 + 701 pi_d_a6_a0_proc_1 + 701 pi_d_a6_a2_proc_1
      + 701 pi_d_a6_a4_proc_1 + 701 pi_d_a6_a5_proc_1 + 701 pi_d_a6_a7_proc_1
      + 701 pi_d_a6_a8_proc_1 + 701 pi_d_a6_a9_proc_1 + pi_y1_a6
      + pi_y2_a6_proc_1 >= 0
 c21: - pi_p_a4_a7 + pi_p_a7_a9 - pi_d_a0_a7_proc_1 + pi_d_a7_a0_proc_1
      - pi_d_a1_a7_proc_0 + pi_d_a7_a1_proc_0 - pi_d_a2_a7_proc_1
      - pi_d_a2_a7_proc_0 + pi_d_a7_a2_proc_1 + pi_d_a7_a2_proc_0
      - pi_d_a3_a7_proc_0 + pi_d_a7_a3_proc_0 - pi_d_a4_a7_proc_1
      - pi_d_a4_a7_proc_0 + pi_d_a7_a4_proc_1 + pi_d_a7_a4_proc_0
      - pi_d_a5_a7_proc_1 - pi_d_a5_a7_proc_0 + pi_d_a7_a5_proc_1
      + pi_d_a7_a5_proc_0 - pi_d_a6_a7_proc_1 - pi_d_a6_a7_proc_0
      + pi_d_a7_a6_proc_1 + pi_d_a7_a6_proc_0 + pi_d_a7_a8_proc_1
      + pi_d_a7_a8_proc_0 - pi_d_a8_a7_proc_1 - pi_d_a8_a7_proc_0
      + pi_d_a7_a9_proc_1 - pi_d_a9_a7_proc_1 >= 0
 c22: 826 pi_p_a7_a9 + 826 pi_d_a7_a1_proc_0 + 826 pi_d_a7_a2_proc_0
      + 826 pi_d_a7_a3_proc_0 + 826 pi_d_a7_a4_proc_0 + 826 pi_d_a7_a5_proc_0
      + 826 pi_d_a7_a6_proc_0 + 826 pi_d_a7_a8_proc_0 + pi_y1_a7
      + pi_y2_a7_proc_0 >= 0
 c23: 916 pi_p_a7_a9 + 916 pi_d_a7_a0_proc_1 + 916 pi_d_a7_a2_proc_1
      + 916 pi_d_a7_a4_proc_1 + 916 pi_d_a7_a5_proc_1 + 916 pi_d_a7_a6_proc_1
      + 916 pi_d_a7_a8_proc_1 + 916 pi_d_a7_a9_proc_1 + pi_y1_a7
      + pi_y2_a7_proc_1 >= 0
 c24: - pi_p_a2_a8 + pi_p_a8_a5 - pi_p_a5_a8 - pi_d_a0_a8_proc_1
      + pi_d_a8_a0_proc_1 - pi_d_a1_a8_proc_0 + pi_d_a8_a1_proc_0
      - pi_d_a2_a8_proc_1 - pi_d_a2_a8_proc_0 + pi_d_a8_a2_proc_1
      + pi_d_a8_a2_proc_0 - pi_d_a3_a8_proc_0 + pi_d_a8_a3_proc_0
      - pi_d_a4_a8_proc_1 - pi_d_a4_a8_proc_0 + pi_d_a8_a4_proc_1
      + pi_d_a8_a4_proc_0 - pi_d_a5_a8_proc_1 - pi_d_a5_a8_proc_0
      + pi_d_a8_a5_proc_1 + pi_d_a8_a5_proc_0 - pi_d_a6_a8_proc_1
      - pi_d_a6_a8_proc_0 + pi_d_a8_a6_proc_1 + pi_d_a8_a6_proc_0
      - pi_d_a7_a8_proc_1 - pi_d_a7_a8_proc_0 + pi_d_a8_a7_proc_1
      + pi_d_a8_a7_proc_0 + pi_d_a8_a9_proc_1 - pi_d_a9_a8_proc_1 >= 0
 c25: 1154 pi_p_a8_a5 + 1154 pi_d_a8_a1_proc_0 + 1154 pi_d_a8_a2_proc_0
      + 1154 pi_d_a8_a3_proc_0 + 1154 pi_d_a8_a4_proc_0 + 1154 pi_d_a8_a5_proc_0
      + 1154 pi_d_a8_a6_proc_0 + 1154 pi_d_a8_a7_proc_0 + pi_y1_a8
      + pi_y2_a8_proc_0 >= 0
 c26: 513 pi_p_a8_a5 + 513 pi_d_a8_a0_proc_1 + 513 pi_d_a8_a2_proc_1
      + 513 pi_d_a8_a4_proc_1 + 513 pi_d_a8_a5_proc_1 + 513 pi_d_a8_a6_proc_1
      + 513 pi_d_a8_a7_proc_1 + 513 pi_d_a8_a9_proc_1 + pi_y1_a8
      + pi_y2_a8_proc_1 >= 0
 c27: pi_p_a9_a5 - pi_p_a7_a9 + pi_p_a9_a4 - pi_d_a0_a9_proc_1
      + pi_d_a9_a0_proc_1 - pi_d_a2_a9_proc_1 + pi_d_a9_a2_proc_1
      - pi_d_a4_a9_proc_1 + pi_d_a9_a4_proc_1 - pi_d_a5_a9_proc_1
      + pi_d_a9_a5_proc_1 - pi_d_a6_a9_proc_1 + pi_d_a9_a6_proc_1
      - pi_d_a7_a9_proc_1 + pi_d_a9_a7_proc_1 - pi_d_a8_a9_proc_1
      + pi_d_a9_a8_proc_1 >= 0
 c28: 1183 pi_p_a9_a5 + 1183 pi_p_a9_a4 + 1183 pi_d_a9_a0_proc_1
      + 1183 pi_d_a9_a2_proc_1 + 1183 pi_d_a9_a4_proc_1 + 1183 pi_d_a9_a5_proc_1
      + 1183 pi_d_a9_a6_proc_1 + 1183 pi_d_a9_a7_proc_1 + 1183 pi_d_a9_a8_proc_1
      + pi_y1_a9 + pi_y2_a9_proc_1 >= 0

Bounds
       pi_y1_a0 Free
       pi_y1_a1 Free
       pi_y1_a2 Free
       pi_y1_a3 Free
       pi_y1_a4 Free
       pi_y1_a5 Free
       pi_y1_a6 Free
       pi_y1_a7 Free
       pi_y1_a8 Free
       pi_y1_a9 Free
End
