benchmark/results/graph__10-1000-0.10-02_1/graph__10-1000-0.10-02_1_Quinton_Benders_aux.txt
solution for: Quinton Benders_auxiliary_sub
objective: 0.17568
status: OPTIMAL_SOLUTION(2)
pi_p_a0_a1=0.000
pi_p_a2_a0=0.000
pi_p_a3_a2=0.000
pi_p_a5_a3=0.000
pi_p_a9_a5=0.000
pi_p_a7_a9=0.000
pi_d_a1_a7_proc_0=0.000
pi_y1_a0=-0.175
pi_y1_a1=-0.163
pi_y1_a2=-0.149
pi_y1_a3=-0.155
pi_y1_a5=-0.083
pi_y1_a7=-0.113
pi_y1_a9=-0.162
pi_y2_a2_proc_0=0.065
